SDVRP instances/custom_instances/p10_3_splitx10_0.vrp
NAME:p10_3_splitx10_
BEST_KNOWN: 0
COMMENT: 0
DIMENSION: 921
CAPACITY: 2000
EDGE_WEIGHT_FORMAT: FUNCTION
EDGE_WEIGHT_TYPE: EXACT_2D
NODE_COORD_SECTION
1 0.00000 0.00000
2 38 45
3 38 45
4 38 45
5 38 45
6 38 45
7 -2 5
8 -2 5
9 -2 5
10 -2 5
11 -41 -16
12 -41 -16
13 -41 -16
14 11 -9
15 11 -9
16 11 -9
17 16 -36
18 16 -36
19 16 -36
20 -21 -36
21 -21 -36
22 -21 -36
23 -21 -36
24 -21 -36
25 -21 -36
26 3 -14
27 3 -14
28 3 -14
29 3 -14
30 3 -14
31 3 -14
32 -15 18
33 -15 18
34 -15 18
35 -15 18
36 -15 18
37 -15 18
38 6 1
39 6 1
40 6 1
41 45 4
42 45 4
43 45 4
44 45 4
45 -3 -10
46 -3 -10
47 -3 -10
48 -3 -10
49 25 28
50 25 28
51 25 28
52 21 -10
53 21 -10
54 21 -10
55 21 -10
56 21 -10
57 21 -10
58 29 4
59 29 4
60 29 4
61 29 4
62 29 4
63 29 4
64 -24 1
65 -24 1
66 -24 1
67 -24 1
68 -24 1
69 -24 1
70 10 25
71 10 25
72 10 25
73 10 25
74 10 25
75 10 25
76 10 25
77 10 -8
78 10 -8
79 10 -8
80 10 -8
81 10 -8
82 36 45
83 36 45
84 36 45
85 38 -47
86 38 -47
87 38 -47
88 38 -47
89 38 -47
90 38 -47
91 -36 -24
92 -36 -24
93 -36 -24
94 -36 -24
95 -36 -24
96 -36 -24
97 -49 -14
98 -49 -14
99 -49 -14
100 -49 -14
101 -49 -14
102 -49 -14
103 -49 -14
104 -46 29
105 -46 29
106 -46 29
107 -46 29
108 -46 29
109 23 -16
110 23 -16
111 -6 47
112 -6 47
113 -6 47
114 -6 47
115 -6 47
116 -29 8
117 -29 8
118 -29 8
119 -19 -24
120 -19 -24
121 -19 -24
122 10 32
123 10 32
124 10 32
125 10 32
126 10 32
127 -9 -11
128 -9 -11
129 -9 -11
130 38 42
131 38 42
132 10 -32
133 10 -32
134 10 -32
135 10 -32
136 10 -32
137 -45 -27
138 -45 -27
139 -30 24
140 -30 24
141 -30 24
142 9 26
143 9 26
144 9 26
145 -38 25
146 -38 25
147 -38 25
148 -38 25
149 -38 25
150 -9 -3
151 -9 -3
152 -9 -3
153 -9 -3
154 -9 -3
155 -42 10
156 -42 10
157 -42 10
158 -42 10
159 -42 10
160 41 10
161 41 10
162 41 10
163 26 -40
164 26 -40
165 26 -40
166 26 -40
167 3 12
168 3 12
169 3 12
170 3 12
171 3 12
172 3 12
173 -37 -15
174 -37 -15
175 -37 -15
176 -37 -15
177 -37 -15
178 14 -20
179 14 -20
180 16 -47
181 16 -47
182 16 -47
183 16 -47
184 16 -47
185 16 -47
186 16 -47
187 8 25
188 8 25
189 8 25
190 8 25
191 8 25
192 8 25
193 27 22
194 27 22
195 27 22
196 -25 -11
197 -25 -11
198 -25 -11
199 -25 -11
200 -25 -11
201 -25 -11
202 -25 -11
203 14 -24
204 14 -24
205 14 -24
206 14 -24
207 14 -24
208 14 -24
209 -4 -10
210 -4 -10
211 -4 -10
212 48 -31
213 48 -31
214 48 -31
215 48 -31
216 48 -31
217 48 -31
218 -31 -6
219 -31 -6
220 -31 -6
221 -31 -6
222 -31 -6
223 -31 -6
224 -31 -6
225 -14 7
226 -14 7
227 -14 7
228 -14 7
229 -14 7
230 -14 7
231 37 2
232 37 2
233 37 2
234 37 2
235 37 2
236 -24 19
237 -24 19
238 -24 19
239 -24 19
240 -25 43
241 -25 43
242 -25 43
243 -25 43
244 -25 43
245 24 11
246 24 11
247 24 11
248 24 11
249 24 11
250 24 11
251 -17 -13
252 -17 -13
253 -17 -13
254 -17 -13
255 -17 -13
256 -17 -13
257 12 37
258 12 37
259 12 37
260 12 37
261 12 37
262 12 37
263 12 37
264 12 -37
265 12 -37
266 12 -37
267 12 -37
268 12 -37
269 47 -5
270 47 -5
271 47 -5
272 47 49
273 47 49
274 47 49
275 47 49
276 -15 -18
277 -47 45
278 -47 45
279 -47 45
280 -47 45
281 -47 45
282 -47 45
283 3 15
284 3 15
285 3 15
286 -17 40
287 -17 40
288 -17 40
289 48 -36
290 48 -36
291 48 -36
292 -19 -20
293 -19 -20
294 -33 -12
295 -33 -12
296 -33 -12
297 -33 -12
298 -33 -12
299 -33 -12
300 -33 -12
301 -48 49
302 -48 49
303 -48 49
304 23 -27
305 23 -27
306 23 -27
307 23 -27
308 23 -27
309 -27 0
310 -27 0
311 -27 0
312 -27 0
313 -27 0
314 4 17
315 4 17
316 4 17
317 4 17
318 -40 -31
319 -40 -31
320 -40 -31
321 -40 -31
322 -40 -31
323 -40 -31
324 -40 -31
325 -24 -36
326 -24 -36
327 -24 -36
328 -24 -36
329 -24 -36
330 -24 -36
331 -32 -15
332 -32 -15
333 -32 -15
334 -32 -15
335 -32 -15
336 -32 -15
337 -18 -34
338 -18 -34
339 -18 -34
340 -18 -34
341 -28 39
342 -28 39
343 -28 39
344 -28 39
345 -28 39
346 -28 39
347 -28 39
348 33 -8
349 33 -8
350 33 -8
351 -18 -37
352 -18 -37
353 2 -24
354 2 -24
355 2 -24
356 11 -12
357 11 -12
358 11 -12
359 47 19
360 47 19
361 47 19
362 47 19
363 47 19
364 -20 44
365 -20 44
366 -20 44
367 -20 44
368 -20 44
369 -20 44
370 1 -9
371 1 -9
372 1 -9
373 1 -9
374 14 35
375 14 35
376 14 35
377 14 35
378 14 35
379 14 35
380 -11 -4
381 -11 -4
382 -11 -4
383 43 1
384 43 1
385 43 1
386 31 -39
387 31 -39
388 31 -39
389 31 -39
390 31 -39
391 37 44
392 37 44
393 -3 -28
394 -3 -28
395 -3 -28
396 -3 -28
397 -3 -28
398 -49 -10
399 -49 -10
400 31 -7
401 31 -7
402 31 -7
403 31 -7
404 31 -7
405 31 -7
406 45 33
407 45 33
408 45 33
409 45 33
410 45 33
411 -26 20
412 -26 20
413 -26 20
414 -46 0
415 -46 0
416 -46 0
417 -46 0
418 -46 0
419 -46 0
420 -46 0
421 -46 0
422 -12 25
423 -12 25
424 -12 25
425 -12 25
426 -12 25
427 -12 25
428 -16 33
429 -16 33
430 -16 33
431 28 -17
432 -22 -17
433 -22 -17
434 -22 -17
435 -22 -17
436 -22 -17
437 -2 -38
438 -2 -38
439 -29 36
440 -29 36
441 -29 36
442 -29 36
443 -29 36
444 -29 36
445 40 -13
446 40 -13
447 40 -13
448 40 -13
449 40 -13
450 -39 -24
451 -39 -24
452 -39 -24
453 -39 -24
454 -39 -24
455 -39 -24
456 -39 -24
457 -36 43
458 -36 43
459 -28 13
460 -28 13
461 -28 13
462 -28 13
463 -28 13
464 -28 13
465 -28 13
466 23 -16
467 23 -16
468 23 -16
469 23 -16
470 23 -16
471 21 -27
472 21 -27
473 21 -27
474 21 -27
475 21 -27
476 21 -27
477 18 18
478 18 18
479 18 18
480 18 18
481 18 18
482 18 18
483 -13 26
484 -13 26
485 -13 26
486 44 8
487 44 8
488 44 8
489 44 8
490 44 8
491 44 8
492 -1 30
493 -1 30
494 -1 30
495 -1 30
496 -1 30
497 39 28
498 5 7
499 5 7
500 5 7
501 5 7
502 5 7
503 5 7
504 32 40
505 32 40
506 32 40
507 32 40
508 -45 36
509 -45 36
510 -45 36
511 0 -47
512 0 -47
513 0 -47
514 33 4
515 33 4
516 33 4
517 33 4
518 33 4
519 34 23
520 34 23
521 34 23
522 34 23
523 34 23
524 34 23
525 3 -41
526 3 -41
527 3 -41
528 3 -41
529 3 -41
530 3 -41
531 3 -41
532 3 -41
533 -47 -25
534 -47 -25
535 -47 -25
536 -47 -25
537 -4 34
538 -4 34
539 -4 34
540 -4 34
541 -4 34
542 -4 34
543 40 24
544 40 24
545 40 24
546 40 24
547 40 24
548 40 24
549 40 24
550 15 -10
551 15 -10
552 15 -10
553 15 -10
554 -35 -29
555 -35 -29
556 -35 -29
557 -35 -29
558 -35 -29
559 38 7
560 38 7
561 5 49
562 5 49
563 5 49
564 5 49
565 5 49
566 5 49
567 5 49
568 -15 -12
569 -15 -12
570 -15 -12
571 -15 -12
572 -24 0
573 -24 0
574 -24 0
575 -45 42
576 -45 42
577 -45 42
578 -45 42
579 -45 42
580 -45 42
581 -45 42
582 -26 -38
583 -26 -38
584 -26 -38
585 -26 -38
586 -26 -38
587 -26 -38
588 -19 18
589 -19 18
590 -19 18
591 50 18
592 50 18
593 50 18
594 50 18
595 50 18
596 50 18
597 50 18
598 50 18
599 19 46
600 19 46
601 19 46
602 19 46
603 19 46
604 19 46
605 19 46
606 -1 23
607 -1 23
608 -1 23
609 17 46
610 17 46
611 17 46
612 -42 8
613 -42 8
614 -42 8
615 -42 8
616 -42 8
617 -42 8
618 -42 8
619 42 11
620 42 11
621 42 11
622 42 11
623 42 11
624 6 15
625 6 15
626 6 15
627 6 15
628 6 15
629 6 15
630 42 25
631 42 25
632 42 25
633 42 25
634 -37 -13
635 -37 -13
636 -37 -13
637 -13 -36
638 -13 -36
639 -13 -36
640 -13 -36
641 -13 -36
642 -13 -36
643 -21 -43
644 -21 -43
645 -21 -43
646 -21 -43
647 -47 22
648 -47 22
649 -47 22
650 -39 -37
651 -39 -37
652 -39 -37
653 -39 -37
654 -39 -37
655 -16 -9
656 -16 -9
657 -16 -9
658 -16 -9
659 -16 -9
660 -16 -9
661 -16 -9
662 28 -1
663 28 -1
664 28 -1
665 14 -9
666 14 -9
667 14 -9
668 14 -9
669 14 -9
670 14 -9
671 -35 23
672 -35 23
673 -35 23
674 -35 23
675 -35 23
676 -13 -45
677 -13 -45
678 -13 -45
679 -13 -45
680 -1 12
681 -1 12
682 -1 12
683 -1 12
684 41 45
685 41 45
686 41 45
687 41 45
688 41 45
689 21 4
690 21 4
691 -27 40
692 -7 -15
693 -7 -15
694 -7 -15
695 -7 -15
696 -22 32
697 -22 32
698 -22 32
699 -22 32
700 -41 -13
701 -18 13
702 -18 13
703 -47 -7
704 -47 -7
705 -47 -7
706 -14 -41
707 -14 -41
708 44 24
709 44 24
710 44 24
711 44 24
712 44 24
713 5 -43
714 5 -43
715 5 -43
716 5 -43
717 -37 -34
718 -37 -34
719 -37 -34
720 -37 -34
721 -37 -34
722 -37 -34
723 31 -34
724 31 -34
725 31 -34
726 31 -34
727 31 -34
728 31 -34
729 31 -34
730 -44 0
731 -44 0
732 -44 0
733 -44 0
734 -44 0
735 -44 0
736 -44 0
737 -35 17
738 -35 17
739 -35 17
740 -35 17
741 -20 23
742 -20 23
743 -20 23
744 -20 23
745 23 14
746 23 14
747 23 14
748 23 14
749 23 14
750 23 14
751 12 41
752 12 41
753 12 41
754 12 41
755 12 41
756 12 41
757 12 41
758 21 -45
759 21 -45
760 21 -45
761 21 -45
762 21 -45
763 21 -45
764 21 -45
765 -27 -5
766 -27 -5
767 -27 -5
768 -27 -5
769 -27 -5
770 -27 -5
771 48 11
772 48 -38
773 48 -38
774 48 -38
775 -47 12
776 -47 12
777 -47 12
778 -47 12
779 -6 -46
780 -6 -46
781 -6 -46
782 -6 -46
783 -6 -46
784 -6 -46
785 15 6
786 15 6
787 15 6
788 15 6
789 13 -49
790 13 -49
791 13 -49
792 13 -49
793 13 -49
794 13 -49
795 13 -49
796 -32 12
797 -32 12
798 -32 12
799 -32 12
800 -32 12
801 -32 12
802 48 -21
803 48 -21
804 48 -21
805 48 -21
806 48 -21
807 48 -21
808 -14 -46
809 -14 -46
810 -3 39
811 -3 39
812 -3 39
813 -3 39
814 17 0
815 17 0
816 17 0
817 17 0
818 17 0
819 -34 29
820 -34 29
821 -34 29
822 -34 29
823 -34 29
824 -34 29
825 -34 29
826 -34 29
827 -42 16
828 -42 16
829 -42 16
830 -42 16
831 -20 -4
832 -20 -4
833 -20 -4
834 -20 -4
835 -20 -4
836 -20 -4
837 -20 -4
838 -27 -40
839 -27 -40
840 -27 -40
841 -27 -40
842 -27 -40
843 -27 -40
844 -27 -40
845 37 44
846 37 44
847 37 44
848 7 35
849 7 35
850 7 35
851 43 -25
852 43 -25
853 43 -25
854 43 -25
855 43 -25
856 43 -25
857 43 -25
858 43 -25
859 -22 13
860 -22 13
861 -22 13
862 -22 13
863 -22 13
864 -22 13
865 -8 -50
866 -8 -50
867 -8 -50
868 -8 -50
869 -8 -50
870 -8 -50
871 35 18
872 35 18
873 35 18
874 35 18
875 35 18
876 35 18
877 -46 31
878 -46 31
879 -46 31
880 -11 19
881 -11 19
882 -11 19
883 -11 19
884 -11 19
885 -11 19
886 20 17
887 20 17
888 20 17
889 20 17
890 20 17
891 -15 24
892 -15 24
893 -15 24
894 -15 24
895 -15 24
896 -15 24
897 23 -35
898 23 -35
899 23 -35
900 44 22
901 44 22
902 44 22
903 44 22
904 -23 45
905 -23 45
906 -23 45
907 -23 45
908 -23 45
909 4 -41
910 4 -41
911 4 -41
912 4 -41
913 4 -41
914 31 28
915 31 28
916 31 28
917 20 3
918 20 3
919 20 3
920 20 3
921 20 3
DEMAND_SECTION
1 0
2 400
3 20
4 20
5 20
6 10
7 200
8 20
9 20
10 20
11 400
12 400
13 200
14 400
15 100
16 20
17 400
18 100
19 20
20 400
21 400
22 20
23 20
24 20
25 10
26 400
27 200
28 20
29 20
30 20
31 20
32 200
33 100
34 20
35 20
36 20
37 20
38 400
39 200
40 100
41 200
42 100
43 20
44 10
45 400
46 400
47 20
48 20
49 400
50 400
51 200
52 200
53 20
54 20
55 20
56 20
57 10
58 400
59 400
60 100
61 20
62 20
63 10
64 400
65 400
66 100
67 20
68 20
69 10
70 400
71 200
72 20
73 20
74 20
75 20
76 10
77 400
78 100
79 20
80 20
81 10
82 400
83 400
84 10
85 400
86 400
87 20
88 20
89 20
90 10
91 400
92 200
93 20
94 20
95 20
96 10
97 400
98 400
99 20
100 20
101 20
102 20
103 10
104 400
105 20
106 20
107 20
108 20
109 400
110 100
111 200
112 20
113 20
114 20
115 10
116 400
117 20
118 10
119 400
120 20
121 10
122 400
123 200
124 100
125 20
126 10
127 400
128 400
129 20
130 400
131 100
132 400
133 400
134 100
135 20
136 20
137 400
138 10
139 200
140 100
141 20
142 400
143 400
144 20
145 200
146 20
147 20
148 20
149 10
150 200
151 20
152 20
153 20
154 10
155 400
156 200
157 100
158 20
159 10
160 400
161 400
162 10
163 400
164 200
165 20
166 20
167 400
168 400
169 20
170 20
171 20
172 20
173 400
174 100
175 20
176 20
177 10
178 400
179 20
180 400
181 100
182 20
183 20
184 20
185 20
186 10
187 400
188 200
189 100
190 20
191 20
192 20
193 400
194 400
195 100
196 400
197 400
198 100
199 20
200 20
201 20
202 10
203 400
204 200
205 20
206 20
207 20
208 10
209 400
210 100
211 20
212 200
213 20
214 20
215 20
216 20
217 10
218 400
219 100
220 20
221 20
222 20
223 20
224 10
225 400
226 20
227 20
228 20
229 20
230 10
231 400
232 100
233 20
234 20
235 20
236 400
237 200
238 20
239 20
240 400
241 400
242 20
243 20
244 10
245 400
246 200
247 20
248 20
249 20
250 20
251 200
252 100
253 20
254 20
255 20
256 20
257 400
258 200
259 100
260 20
261 20
262 20
263 10
264 400
265 20
266 20
267 20
268 20
269 400
270 200
271 100
272 400
273 400
274 100
275 10
276 400
277 400
278 200
279 20
280 20
281 20
282 10
283 400
284 400
285 100
286 200
287 100
288 10
289 400
290 200
291 100
292 400
293 10
294 400
295 400
296 20
297 20
298 20
299 20
300 10
301 200
302 100
303 10
304 400
305 200
306 20
307 20
308 10
309 200
310 100
311 20
312 20
313 20
314 400
315 200
316 20
317 20
318 200
319 100
320 20
321 20
322 20
323 20
324 10
325 400
326 400
327 20
328 20
329 20
330 10
331 400
332 200
333 20
334 20
335 20
336 20
337 400
338 400
339 20
340 20
341 400
342 100
343 20
344 20
345 20
346 20
347 10
348 200
349 100
350 20
351 400
352 10
353 400
354 20
355 20
356 400
357 20
358 20
359 200
360 100
361 20
362 20
363 20
364 200
365 20
366 20
367 20
368 20
369 10
370 400
371 400
372 20
373 20
374 400
375 20
376 20
377 20
378 20
379 10
380 400
381 100
382 20
383 400
384 100
385 20
386 400
387 200
388 100
389 20
390 10
391 200
392 100
393 200
394 20
395 20
396 20
397 10
398 400
399 400
400 400
401 200
402 20
403 20
404 20
405 20
406 200
407 100
408 20
409 20
410 20
411 400
412 100
413 20
414 400
415 200
416 100
417 20
418 20
419 20
420 20
421 10
422 200
423 20
424 20
425 20
426 20
427 10
428 400
429 100
430 20
431 400
432 400
433 100
434 20
435 20
436 10
437 400
438 10
439 400
440 400
441 100
442 20
443 20
444 10
445 400
446 400
447 20
448 20
449 20
450 400
451 100
452 20
453 20
454 20
455 20
456 10
457 200
458 100
459 400
460 400
461 100
462 20
463 20
464 20
465 10
466 400
467 400
468 100
469 20
470 10
471 400
472 100
473 20
474 20
475 20
476 20
477 400
478 200
479 100
480 20
481 20
482 20
483 400
484 400
485 100
486 400
487 100
488 20
489 20
490 20
491 20
492 200
493 20
494 20
495 20
496 10
497 400
498 200
499 100
500 20
501 20
502 20
503 20
504 200
505 20
506 20
507 20
508 400
509 400
510 10
511 400
512 200
513 20
514 400
515 20
516 20
517 20
518 10
519 400
520 400
521 20
522 20
523 20
524 10
525 400
526 400
527 100
528 20
529 20
530 20
531 20
532 10
533 400
534 100
535 20
536 10
537 400
538 200
539 100
540 20
541 20
542 10
543 400
544 200
545 20
546 20
547 20
548 20
549 10
550 400
551 100
552 20
553 20
554 400
555 400
556 20
557 20
558 20
559 200
560 100
561 400
562 200
563 20
564 20
565 20
566 20
567 10
568 200
569 20
570 20
571 10
572 400
573 400
574 100
575 200
576 100
577 20
578 20
579 20
580 20
581 10
582 400
583 200
584 20
585 20
586 20
587 10
588 400
589 400
590 200
591 400
592 200
593 100
594 20
595 20
596 20
597 20
598 10
599 400
600 200
601 20
602 20
603 20
604 20
605 10
606 400
607 100
608 20
609 400
610 200
611 10
612 400
613 200
614 100
615 20
616 20
617 20
618 10
619 400
620 400
621 100
622 20
623 10
624 400
625 20
626 20
627 20
628 20
629 10
630 400
631 100
632 20
633 20
634 400
635 400
636 200
637 400
638 100
639 20
640 20
641 20
642 10
643 400
644 20
645 20
646 10
647 200
648 100
649 20
650 400
651 20
652 20
653 20
654 20
655 400
656 400
657 100
658 20
659 20
660 20
661 10
662 400
663 400
664 20
665 400
666 400
667 20
668 20
669 20
670 20
671 400
672 400
673 20
674 20
675 10
676 400
677 400
678 100
679 10
680 200
681 20
682 20
683 10
684 400
685 200
686 100
687 20
688 10
689 400
690 20
691 400
692 400
693 400
694 20
695 20
696 400
697 20
698 20
699 20
700 400
701 200
702 100
703 400
704 200
705 20
706 400
707 200
708 400
709 400
710 20
711 20
712 20
713 200
714 20
715 20
716 10
717 400
718 100
719 20
720 20
721 20
722 10
723 400
724 200
725 100
726 20
727 20
728 20
729 10
730 400
731 200
732 100
733 20
734 20
735 20
736 10
737 400
738 200
739 20
740 10
741 400
742 400
743 100
744 10
745 400
746 400
747 100
748 20
749 20
750 20
751 400
752 200
753 100
754 20
755 20
756 20
757 20
758 400
759 100
760 20
761 20
762 20
763 20
764 10
765 400
766 200
767 100
768 20
769 20
770 20
771 400
772 200
773 100
774 10
775 200
776 100
777 20
778 20
779 400
780 20
781 20
782 20
783 20
784 10
785 400
786 400
787 20
788 20
789 400
790 400
791 100
792 20
793 20
794 20
795 10
796 400
797 400
798 100
799 20
800 20
801 10
802 400
803 200
804 100
805 20
806 20
807 10
808 400
809 20
810 200
811 20
812 20
813 10
814 400
815 200
816 100
817 20
818 10
819 400
820 400
821 100
822 20
823 20
824 20
825 20
826 10
827 400
828 20
829 20
830 10
831 400
832 200
833 100
834 20
835 20
836 20
837 20
838 400
839 200
840 100
841 20
842 20
843 20
844 10
845 200
846 100
847 10
848 400
849 400
850 10
851 400
852 200
853 100
854 20
855 20
856 20
857 20
858 10
859 400
860 400
861 100
862 20
863 20
864 20
865 200
866 20
867 20
868 20
869 20
870 10
871 400
872 200
873 100
874 20
875 20
876 10
877 200
878 100
879 20
880 400
881 200
882 20
883 20
884 20
885 20
886 400
887 400
888 20
889 20
890 10
891 400
892 100
893 20
894 20
895 20
896 10
897 200
898 100
899 20
900 400
901 400
902 20
903 10
904 400
905 200
906 100
907 20
908 10
909 400
910 20
911 20
912 20
913 10
914 400
915 200
916 10
917 400
918 100
919 20
920 20
921 10
DEPOT_SECTION
1
-1
EOF