SDVRP instances/custom_instances/p10_3_splitx10_0.sol
920 -8 7 9 6 680 679 167 166 38 39 37 -16 18 17 264 263 266 265 267 134 132 131 133 135 -23 21 24 20 19 22 326 325 324 329 328 327 119 120 254 255 252 253 251 568 -30 28 25 27 29 26 372 371 370 369 -31 32 35 36 33 34 587 589 588 700 224 225 -47 46 44 45 208 210 209 -56 53 54 445 447 446 444 448 348 347 349 400 403 399 401 402 404 -62 61 516 559 487 489 485 486 490 488 770 43 42 40 41 383 384 382 234 -65 66 63 64 68 67 572 573 571 833 832 -77 76 80 79 78 14 15 13 665 669 667 666 668 664 -92 94 93 90 91 95 322 318 317 319 321 323 320 137 136 532 535 534 533 -97 96 98 99 102 101 100 397 398 704 703 -116 117 115 155 154 157 158 156 615 611 616 613 612 617 614 -124 123 125 121 122 849 848 847 607 605 682 681 -129 130 407 408 409 406 405 496 544 546 545 543 542 548 547 -143 259 258 257 256 261 260 262 752 754 753 756 750 751 755 373 -151 153 152 150 149 128 126 127 693 694 691 692 -170 169 168 171 191 190 187 48 49 50 913 914 915 -178 177 109 469 468 467 466 465 108 550 552 551 -184 180 181 179 182 185 183 788 791 793 794 790 789 792 352 354 353 -189 188 186 141 142 74 70 75 69 71 627 -194 192 193 523 520 522 519 521 518 874 875 871 -200 199 197 195 198 201 196 765 768 767 764 769 308 312 310 311 309 -204 207 203 205 206 202 472 473 475 470 471 474 307 303 305 306 304 -221 219 702 418 413 419 420 416 417 414 415 732 735 731 734 729 730 733 -229 227 228 226 458 460 462 461 464 459 463 799 798 797 795 800 796 -232 233 231 230 513 59 57 60 58 917 919 918 -236 238 139 140 138 670 671 737 736 738 739 -242 243 240 241 239 906 905 907 904 903 368 365 364 367 363 366 287 286 -247 249 873 870 872 709 711 708 710 707 631 630 632 629 -250 431 435 433 434 432 292 291 118 275 -270 268 269 804 801 805 802 803 806 856 855 854 853 857 430 -282 283 284 314 313 315 316 624 623 628 625 -330 333 295 294 293 296 299 298 297 222 220 223 217 218 766 -355 357 356 549 51 55 52 661 663 662 -379 381 380 836 831 835 834 830 655 657 654 -389 387 86 85 87 89 84 88 164 162 163 165 897 896 898 -395 396 393 392 394 437 436 524 525 908 910 911 909 912 -424 421 426 425 422 423 484 482 483 537 538 540 539 541 536 494 492 -438 443 441 442 439 440 343 345 340 690 891 892 893 895 882 -451 455 449 454 453 452 450 12 11 10 699 -499 500 501 502 497 498 479 477 478 481 480 476 886 885 889 888 887 -506 504 503 505 3 4 2 5 272 273 271 274 683 684 687 686 685 -517 515 514 558 159 160 161 621 622 619 618 620 -527 526 528 529 530 531 712 715 714 713 512 510 511 867 866 864 868 869 865 779 782 778 780 783 781 -554 556 557 555 553 720 716 717 719 718 721 650 649 652 653 651 -563 566 562 561 560 564 565 610 609 608 603 599 601 604 602 598 600 -570 569 567 336 338 337 339 351 350 636 637 641 -582 585 584 583 581 586 838 841 842 837 839 843 840 644 645 643 642 -595 590 593 596 592 591 594 597 360 362 358 361 359 902 901 899 900 -606 491 493 495 810 811 809 812 114 113 112 111 110 285 427 428 429 695 696 -626 72 73 376 377 375 374 378 83 81 82 1 391 844 846 390 845 -634 633 635 174 172 175 176 173 335 331 332 334 660 659 658 656 -639 640 638 705 706 808 807 677 678 676 675 -647 648 646 107 105 106 104 103 877 878 876 508 509 507 672 674 673 -698 697 341 344 342 346 456 457 302 300 301 281 280 276 279 278 277 577 576 579 575 574 580 578 824 820 825 -701 235 237 410 411 412 859 858 860 861 862 863 -728 726 725 722 723 727 724 388 385 386 758 759 757 763 762 760 761 -742 740 741 743 894 890 879 880 881 883 884 -744 748 745 749 747 746 244 248 246 245 785 -771 772 773 288 290 289 216 214 212 213 211 215 850 852 851 -776 775 774 777 828 829 826 827 145 146 147 148 144 822 823 821 818 819 -787 786 784 689 688 920 916 813 815 814 816 817 0 





OBJ=
5369.397
BEST_KNOWN=
0.000